data/mip_solutions/furman_sahinidis/transshipment/4sp1_gurobi.sol
Elapsed time: 0.078871011734
Nodes explored: 0
Upper bound: 5.0
Lower bound: 5.0
y[0,0]=1
y[1,0]=1
y[1,1]=1
y[1,2]=1
y[2,1]=1
q[0,0,2]=555.4
q[0,0,3]=1445.0
q[1,0,1]=144.5
q[1,0,2]=456.1
q[1,1,1]=1844.8
q[1,1,2]=807.1
q[1,2,4]=747.5
q[2,1,0]=345.9
r[0,3]=611.5
r[1,2]=1210.7
r[1,3]=747.5
r[1,4]=747.5
